8172
1 0 0 0 0 1 1 0 0 0 1 0 0 1 1 1 1 0 0 1 
15 6 19 10 16 13 5 16 15 5 5 14 6 13 6 13 13 16 5 15 0 0 10 14 14 14 15 19 19 15 5 15 19 19 15 5 13 13 10 0 0 13 6 13 16 5 5 5 5 15 15 5 0 14 14 10 6 6 6 16 13 5 5 5 15 15 10 19 15 15 15 0 0 0 10 19 19 19 19 19 19 5 16 16 13 13 6 5 16 5 13 13 16 6 13 13 6 13 13 13 